32      4       
10      10      10      10      
0       0       0       0       0       14      2       4       6       8       10      14      15      25      26      27      28      29      30      31      
3       1       0       1       1       5       3       13      20      23      24      
3       6       1       0       2       3       5       16      22      
3       3       2       0       5       3       12      18      19      
8       0       3       3       3       2       9       18      
4       2       5       2       0       1       7       
10      6       5       0       3       3       16      20      21      
6       6       0       7       5       3       16      18      19      
2       0       1       5       1       1       11      
7       5       6       0       7       1       12      
7       6       0       4       4       1       17      
4       0       7       4       4       1       16      
3       4       4       0       4       1       17      
7       0       3       3       3       1       19      
2       3       0       4       3       1       17      
3       0       4       6       9       1       32      
8       3       4       0       8       1       32      
5       4       3       0       4       1       32      
2       0       5       6       3       1       32      
3       4       6       5       0       1       32      
3       0       6       2       3       1       32      
1       3       4       4       0       1       32      
9       0       6       4       2       1       32      
9       0       2       4       3       1       32      
4       6       6       0       5       1       32      
4       0       3       4       2       1       32      
9       4       0       4       3       1       32      
8       4       0       5       7       1       32      
8       0       3       3       5       1       32      
6       3       0       4       6       1       32      
4       3       3       0       3       1       32      
0       0       0       0       0       0       
